CUST NO.   XCOORD.    YCOORD.   DEMAND    READY TIME   DUE DATE   SERVICE TIME
    1      40.00      50.00       0.00       0.00     240.00       0.00
    2      25.00      85.00      20.00      71.00     191.00      10.00
    3      22.00      75.00      30.00      30.00     150.00      10.00
    4      22.00      85.00      10.00      64.00     184.00      10.00
    5      20.00      80.00      40.00     151.00     161.00      10.00
    6      20.00      85.00      20.00      40.00     160.00      10.00
    7      18.00      75.00      20.00      96.00     123.00      10.00
    8      15.00      75.00      20.00      35.00     155.00      10.00
    9      15.00      80.00      10.00     101.00     111.00      10.00
   10      10.00      35.00      20.00     101.00     111.00      10.00
   11      10.00      40.00      30.00     123.00     144.00      10.00
   12       8.00      40.00      40.00      69.00      79.00      10.00
   13       8.00      45.00      20.00      32.00     152.00      10.00
   14       5.00      35.00      10.00     152.00     162.00      10.00
   15       5.00      45.00      10.00      35.00     117.00      10.00
   16       2.00      40.00      20.00      68.00      78.00      10.00
   17       0.00      40.00      20.00      59.00     114.00      10.00
   18       0.00      45.00      20.00     147.00     180.00      10.00
   19      44.00       5.00      20.00      79.00     124.00      10.00
   20      42.00      10.00      40.00      58.00     115.00      10.00
   21      42.00      15.00      10.00     111.00     162.00      10.00
   22      40.00       5.00      10.00      45.00     165.00      10.00
   23      40.00      15.00      40.00      94.00     119.00      10.00
   24      38.00       5.00      30.00      75.00      85.00      10.00
   25      38.00      15.00      10.00     128.00     194.00      10.00
   26      35.00       5.00      20.00     171.00     181.00      10.00
   27      95.00      30.00      30.00      58.00     171.00      10.00
   28      95.00      35.00      20.00      60.00      93.00      10.00
   29      92.00      30.00      10.00      55.00     120.00      10.00
   30      90.00      35.00      10.00      52.00     112.00      10.00
   31      88.00      30.00      10.00      75.00     102.00      10.00
   32      88.00      35.00      20.00      50.00     170.00      10.00
   33      87.00      30.00      10.00     116.00     175.00      10.00
   34      85.00      25.00      10.00      51.00      85.00      10.00
   35      85.00      35.00      30.00      62.00     182.00      10.00
   36      67.00      85.00      20.00     138.00     169.00      10.00
   37      65.00      85.00      40.00      43.00      78.00      10.00
   38      65.00      82.00      10.00      69.00     189.00      10.00
   39      62.00      80.00      30.00      85.00      95.00      10.00
   40      60.00      80.00      10.00      36.00      74.00      10.00
   41      60.00      85.00      30.00      87.00     112.00      10.00
   42      58.00      75.00      20.00      92.00     121.00      10.00
   43      55.00      80.00      10.00      33.00      66.00      10.00
   44      55.00      85.00      20.00     117.00     168.00      10.00
   45      55.00      82.00      10.00      74.00      84.00      10.00
   46      20.00      82.00      10.00      37.00      72.00      10.00
   47      18.00      80.00      10.00      98.00     157.00      10.00
   48       2.00      45.00      10.00      38.00     109.00      10.00
   49      42.00       5.00      10.00      64.00     184.00      10.00
   50      42.00      12.00      10.00     109.00     128.00      10.00
   51      72.00      35.00      30.00      71.00     191.00      10.00
